
P = 1;

n = 10;

m = 10;

w1 = 1.00;

w2 = 5.00;

L = 3.00;

g = 1.26;

t = 
[[72,82,81,86,63,80,62,71,65,66],
[65,70,90,83,94,96,96,80,72,65],
[68,99,65,70,76,60,78,63,77,68],
[82,81,90,95,68,85,75,70,97,73],
[68,62,83,90,77,77,87,66,89,91],
[71,89,90,68,99,98,68,70,93,77],
[70,76,99,92,71,67,77,79,77,66],
[92,77,61,75,68,78,84,95,76,65],
[86,88,94,68,88,93,98,97,95,92],
[74,65,60,65,97,63,72,67,82,81]];
